; Automatically generated by map2smt

(set-logic HORN)

(declare-datatypes ((listOfInt 0) )
(((conslistOfInt (headlistOfInt Int) (taillistOfInt listOfInt)) (nillistOfInt))))



(declare-fun adt_new1 (listOfInt listOfInt Bool) Bool)
(declare-fun f (Int Int) Bool)
(declare-fun p (Int Bool) Bool)
(declare-fun leq (Int Int Bool) Bool)
(declare-fun filter (listOfInt listOfInt) Bool)
(declare-fun append (listOfInt listOfInt listOfInt) Bool)
(declare-fun ff () Bool)

(assert
  (forall ( (A Int) (B Int) )
    (=>
      (= A (+ (- 1) B))
      (f A B)
    )
  )
)
(assert
  (forall ( (A Int) (B Bool) )
    (=>
      (and
        (= B true)
        (>= A 1)
      )
      (p A B)
    )
  )
)
(assert
  (forall ( (A Int) (B Bool) )
    (=>
      (and
        (= B false)
        (<= A 0)
      )
      (p A B)
    )
  )
)
(assert
  (forall ( (A Int) (B listOfInt) (C Bool) )
    (=>
      (= C false)
      (adt_new1 nillistOfInt (conslistOfInt A B) C)
    )
  )
)
(assert
  (forall ( (A Int) (B listOfInt) (C Bool) )
    (=>
      (= C false)
      (adt_new1 (conslistOfInt A B) nillistOfInt C)
    )
  )
)
(assert
  (forall ( (A Bool) )
    (=>
      (= A true)
      (adt_new1 nillistOfInt nillistOfInt A)
    )
  )
)
(assert
  (forall ( (A Int) (B listOfInt) (C Int) (D listOfInt) (E Bool) )
    (=>
      (and
        (= E false)
        (>= (- C A) 1)
      )
      (adt_new1 (conslistOfInt A B) (conslistOfInt C D) E)
    )
  )
)
(assert
  (forall ( (A Int) (B listOfInt) (C Int) (D listOfInt) (E Bool) )
    (=>
      (and
        (= E false)
        (<= (- C A) (- 1))
      )
      (adt_new1 (conslistOfInt A B) (conslistOfInt C D) E)
    )
  )
)
(assert
  (forall ( (A Int) (B listOfInt) (C listOfInt) (D Bool) )
    (=>
      (adt_new1 B C D)
      (adt_new1 (conslistOfInt A B) (conslistOfInt A C) D)
    )
  )
)
(assert
    (filter nillistOfInt nillistOfInt)
)
(assert
  (forall ( (A Int) (B listOfInt) (C listOfInt) )
    (=>
      (and
        (>= A 1)
        (filter B C)
      )
      (filter (conslistOfInt A B) (conslistOfInt A C))
    )
  )
)
(assert
  (forall ( (A Int) (B listOfInt) (C listOfInt) )
    (=>
      (and
        (<= A 0)
        (filter B C)
      )
      (filter (conslistOfInt A B) C)
    )
  )
)
(assert
  (forall ( (A listOfInt) )
    (append nillistOfInt A A)
  )
)
(assert
  (forall ( (A Int) (B listOfInt) (C listOfInt) (D listOfInt) )
    (=>
      (append B C D)
      (append (conslistOfInt A B) C (conslistOfInt A D))
    )
  )
)
(assert
  (forall ( (A Bool) (B listOfInt) (C listOfInt) (D listOfInt) (E listOfInt) (F listOfInt) (G listOfInt) (H listOfInt) )
    (=>
      (and
        (= A false)
        (append B C D)
        (filter D E)
        (filter B F)
        (filter C G)
        (append F G H)
        (adt_new1 E H A)
      )
      ff
    )
  )
)

(assert (not ff))
(check-sat)
